p cnf 96 2514
-1 -17 0
-1 -18 0
-1 -19 0
-1 -20 0
-1 -21 0
-1 -22 0
-2 -17 0
-2 -18 0
-2 -19 0
-2 -20 0
-2 -21 0
-2 -22 0
-3 -17 0
-3 -18 0
-3 -19 0
-3 -20 0
-3 -21 0
-3 -22 0
-4 -17 0
-4 -18 0
-4 -19 0
-4 -20 0
-4 -21 0
-4 -22 0
-5 -17 0
-5 -18 0
-5 -19 0
-5 -20 0
-5 -21 0
-5 -22 0
-6 -17 0
-6 -18 0
-6 -19 0
-6 -20 0
-6 -21 0
-6 -22 0
-1 -241 0
-1 -242 0
-1 -243 0
-1 -244 0
-1 -245 0
-1 -246 0
-2 -241 0
-2 -242 0
-2 -243 0
-2 -244 0
-2 -245 0
-2 -246 0
-3 -241 0
-3 -242 0
-3 -243 0
-3 -244 0
-3 -245 0
-3 -246 0
-4 -241 0
-4 -242 0
-4 -243 0
-4 -244 0
-4 -245 0
-4 -246 0
-5 -241 0
-5 -242 0
-5 -243 0
-5 -244 0
-5 -245 0
-5 -246 0
-6 -241 0
-6 -242 0
-6 -243 0
-6 -244 0
-6 -245 0
-6 -246 0
-17 -49 0
-17 -50 0
-17 -51 0
-17 -52 0
-17 -53 0
-17 -54 0
-18 -49 0
-18 -50 0
-18 -51 0
-18 -52 0
-18 -53 0
-18 -54 0
-19 -49 0
-19 -50 0
-19 -51 0
-19 -52 0
-19 -53 0
-19 -54 0
-20 -49 0
-20 -50 0
-20 -51 0
-20 -52 0
-20 -53 0
-20 -54 0
-21 -49 0
-21 -50 0
-21 -51 0
-21 -52 0
-21 -53 0
-21 -54 0
-22 -49 0
-22 -50 0
-22 -51 0
-22 -52 0
-22 -53 0
-22 -54 0
-17 -81 0
-17 -82 0
-17 -83 0
-17 -84 0
-17 -85 0
-17 -86 0
-18 -81 0
-18 -82 0
-18 -83 0
-18 -84 0
-18 -85 0
-18 -86 0
-19 -81 0
-19 -82 0
-19 -83 0
-19 -84 0
-19 -85 0
-19 -86 0
-20 -81 0
-20 -82 0
-20 -83 0
-20 -84 0
-20 -85 0
-20 -86 0
-21 -81 0
-21 -82 0
-21 -83 0
-21 -84 0
-21 -85 0
-21 -86 0
-22 -81 0
-22 -82 0
-22 -83 0
-22 -84 0
-22 -85 0
-22 -86 0
-17 -113 0
-17 -114 0
-17 -115 0
-17 -116 0
-17 -117 0
-17 -118 0
-18 -113 0
-18 -114 0
-18 -115 0
-18 -116 0
-18 -117 0
-18 -118 0
-19 -113 0
-19 -114 0
-19 -115 0
-19 -116 0
-19 -117 0
-19 -118 0
-20 -113 0
-20 -114 0
-20 -115 0
-20 -116 0
-20 -117 0
-20 -118 0
-21 -113 0
-21 -114 0
-21 -115 0
-21 -116 0
-21 -117 0
-21 -118 0
-22 -113 0
-22 -114 0
-22 -115 0
-22 -116 0
-22 -117 0
-22 -118 0
-17 -177 0
-17 -178 0
-17 -179 0
-17 -180 0
-17 -181 0
-17 -182 0
-18 -177 0
-18 -178 0
-18 -179 0
-18 -180 0
-18 -181 0
-18 -182 0
-19 -177 0
-19 -178 0
-19 -179 0
-19 -180 0
-19 -181 0
-19 -182 0
-20 -177 0
-20 -178 0
-20 -179 0
-20 -180 0
-20 -181 0
-20 -182 0
-21 -177 0
-21 -178 0
-21 -179 0
-21 -180 0
-21 -181 0
-21 -182 0
-22 -177 0
-22 -178 0
-22 -179 0
-22 -180 0
-22 -181 0
-22 -182 0
-17 -209 0
-17 -210 0
-17 -211 0
-17 -212 0
-17 -213 0
-17 -214 0
-18 -209 0
-18 -210 0
-18 -211 0
-18 -212 0
-18 -213 0
-18 -214 0
-19 -209 0
-19 -210 0
-19 -211 0
-19 -212 0
-19 -213 0
-19 -214 0
-20 -209 0
-20 -210 0
-20 -211 0
-20 -212 0
-20 -213 0
-20 -214 0
-21 -209 0
-21 -210 0
-21 -211 0
-21 -212 0
-21 -213 0
-21 -214 0
-22 -209 0
-22 -210 0
-22 -211 0
-22 -212 0
-22 -213 0
-22 -214 0
-17 -225 0
-17 -226 0
-17 -227 0
-17 -228 0
-17 -229 0
-17 -230 0
-18 -225 0
-18 -226 0
-18 -227 0
-18 -228 0
-18 -229 0
-18 -230 0
-19 -225 0
-19 -226 0
-19 -227 0
-19 -228 0
-19 -229 0
-19 -230 0
-20 -225 0
-20 -226 0
-20 -227 0
-20 -228 0
-20 -229 0
-20 -230 0
-21 -225 0
-21 -226 0
-21 -227 0
-21 -228 0
-21 -229 0
-21 -230 0
-22 -225 0
-22 -226 0
-22 -227 0
-22 -228 0
-22 -229 0
-22 -230 0
-33 -129 0
-33 -130 0
-33 -131 0
-33 -132 0
-33 -133 0
-33 -134 0
-34 -129 0
-34 -130 0
-34 -131 0
-34 -132 0
-34 -133 0
-34 -134 0
-35 -129 0
-35 -130 0
-35 -131 0
-35 -132 0
-35 -133 0
-35 -134 0
-36 -129 0
-36 -130 0
-36 -131 0
-36 -132 0
-36 -133 0
-36 -134 0
-37 -129 0
-37 -130 0
-37 -131 0
-37 -132 0
-37 -133 0
-37 -134 0
-38 -129 0
-38 -130 0
-38 -131 0
-38 -132 0
-38 -133 0
-38 -134 0
-49 -113 0
-49 -114 0
-49 -115 0
-49 -116 0
-49 -117 0
-49 -118 0
-50 -113 0
-50 -114 0
-50 -115 0
-50 -116 0
-50 -117 0
-50 -118 0
-51 -113 0
-51 -114 0
-51 -115 0
-51 -116 0
-51 -117 0
-51 -118 0
-52 -113 0
-52 -114 0
-52 -115 0
-52 -116 0
-52 -117 0
-52 -118 0
-53 -113 0
-53 -114 0
-53 -115 0
-53 -116 0
-53 -117 0
-53 -118 0
-54 -113 0
-54 -114 0
-54 -115 0
-54 -116 0
-54 -117 0
-54 -118 0
-49 -161 0
-49 -162 0
-49 -163 0
-49 -164 0
-49 -165 0
-49 -166 0
-50 -161 0
-50 -162 0
-50 -163 0
-50 -164 0
-50 -165 0
-50 -166 0
-51 -161 0
-51 -162 0
-51 -163 0
-51 -164 0
-51 -165 0
-51 -166 0
-52 -161 0
-52 -162 0
-52 -163 0
-52 -164 0
-52 -165 0
-52 -166 0
-53 -161 0
-53 -162 0
-53 -163 0
-53 -164 0
-53 -165 0
-53 -166 0
-54 -161 0
-54 -162 0
-54 -163 0
-54 -164 0
-54 -165 0
-54 -166 0
-49 -177 0
-49 -178 0
-49 -179 0
-49 -180 0
-49 -181 0
-49 -182 0
-50 -177 0
-50 -178 0
-50 -179 0
-50 -180 0
-50 -181 0
-50 -182 0
-51 -177 0
-51 -178 0
-51 -179 0
-51 -180 0
-51 -181 0
-51 -182 0
-52 -177 0
-52 -178 0
-52 -179 0
-52 -180 0
-52 -181 0
-52 -182 0
-53 -177 0
-53 -178 0
-53 -179 0
-53 -180 0
-53 -181 0
-53 -182 0
-54 -177 0
-54 -178 0
-54 -179 0
-54 -180 0
-54 -181 0
-54 -182 0
-49 -225 0
-49 -226 0
-49 -227 0
-49 -228 0
-49 -229 0
-49 -230 0
-50 -225 0
-50 -226 0
-50 -227 0
-50 -228 0
-50 -229 0
-50 -230 0
-51 -225 0
-51 -226 0
-51 -227 0
-51 -228 0
-51 -229 0
-51 -230 0
-52 -225 0
-52 -226 0
-52 -227 0
-52 -228 0
-52 -229 0
-52 -230 0
-53 -225 0
-53 -226 0
-53 -227 0
-53 -228 0
-53 -229 0
-53 -230 0
-54 -225 0
-54 -226 0
-54 -227 0
-54 -228 0
-54 -229 0
-54 -230 0
-49 -241 0
-49 -242 0
-49 -243 0
-49 -244 0
-49 -245 0
-49 -246 0
-50 -241 0
-50 -242 0
-50 -243 0
-50 -244 0
-50 -245 0
-50 -246 0
-51 -241 0
-51 -242 0
-51 -243 0
-51 -244 0
-51 -245 0
-51 -246 0
-52 -241 0
-52 -242 0
-52 -243 0
-52 -244 0
-52 -245 0
-52 -246 0
-53 -241 0
-53 -242 0
-53 -243 0
-53 -244 0
-53 -245 0
-53 -246 0
-54 -241 0
-54 -242 0
-54 -243 0
-54 -244 0
-54 -245 0
-54 -246 0
-65 -113 0
-65 -114 0
-65 -115 0
-65 -116 0
-65 -117 0
-65 -118 0
-66 -113 0
-66 -114 0
-66 -115 0
-66 -116 0
-66 -117 0
-66 -118 0
-67 -113 0
-67 -114 0
-67 -115 0
-67 -116 0
-67 -117 0
-67 -118 0
-68 -113 0
-68 -114 0
-68 -115 0
-68 -116 0
-68 -117 0
-68 -118 0
-69 -113 0
-69 -114 0
-69 -115 0
-69 -116 0
-69 -117 0
-69 -118 0
-70 -113 0
-70 -114 0
-70 -115 0
-70 -116 0
-70 -117 0
-70 -118 0
-65 -129 0
-65 -130 0
-65 -131 0
-65 -132 0
-65 -133 0
-65 -134 0
-66 -129 0
-66 -130 0
-66 -131 0
-66 -132 0
-66 -133 0
-66 -134 0
-67 -129 0
-67 -130 0
-67 -131 0
-67 -132 0
-67 -133 0
-67 -134 0
-68 -129 0
-68 -130 0
-68 -131 0
-68 -132 0
-68 -133 0
-68 -134 0
-69 -129 0
-69 -130 0
-69 -131 0
-69 -132 0
-69 -133 0
-69 -134 0
-70 -129 0
-70 -130 0
-70 -131 0
-70 -132 0
-70 -133 0
-70 -134 0
-65 -145 0
-65 -146 0
-65 -147 0
-65 -148 0
-65 -149 0
-65 -150 0
-66 -145 0
-66 -146 0
-66 -147 0
-66 -148 0
-66 -149 0
-66 -150 0
-67 -145 0
-67 -146 0
-67 -147 0
-67 -148 0
-67 -149 0
-67 -150 0
-68 -145 0
-68 -146 0
-68 -147 0
-68 -148 0
-68 -149 0
-68 -150 0
-69 -145 0
-69 -146 0
-69 -147 0
-69 -148 0
-69 -149 0
-69 -150 0
-70 -145 0
-70 -146 0
-70 -147 0
-70 -148 0
-70 -149 0
-70 -150 0
-65 -161 0
-65 -162 0
-65 -163 0
-65 -164 0
-65 -165 0
-65 -166 0
-66 -161 0
-66 -162 0
-66 -163 0
-66 -164 0
-66 -165 0
-66 -166 0
-67 -161 0
-67 -162 0
-67 -163 0
-67 -164 0
-67 -165 0
-67 -166 0
-68 -161 0
-68 -162 0
-68 -163 0
-68 -164 0
-68 -165 0
-68 -166 0
-69 -161 0
-69 -162 0
-69 -163 0
-69 -164 0
-69 -165 0
-69 -166 0
-70 -161 0
-70 -162 0
-70 -163 0
-70 -164 0
-70 -165 0
-70 -166 0
-65 -177 0
-65 -178 0
-65 -179 0
-65 -180 0
-65 -181 0
-65 -182 0
-66 -177 0
-66 -178 0
-66 -179 0
-66 -180 0
-66 -181 0
-66 -182 0
-67 -177 0
-67 -178 0
-67 -179 0
-67 -180 0
-67 -181 0
-67 -182 0
-68 -177 0
-68 -178 0
-68 -179 0
-68 -180 0
-68 -181 0
-68 -182 0
-69 -177 0
-69 -178 0
-69 -179 0
-69 -180 0
-69 -181 0
-69 -182 0
-70 -177 0
-70 -178 0
-70 -179 0
-70 -180 0
-70 -181 0
-70 -182 0
-65 -209 0
-65 -210 0
-65 -211 0
-65 -212 0
-65 -213 0
-65 -214 0
-66 -209 0
-66 -210 0
-66 -211 0
-66 -212 0
-66 -213 0
-66 -214 0
-67 -209 0
-67 -210 0
-67 -211 0
-67 -212 0
-67 -213 0
-67 -214 0
-68 -209 0
-68 -210 0
-68 -211 0
-68 -212 0
-68 -213 0
-68 -214 0
-69 -209 0
-69 -210 0
-69 -211 0
-69 -212 0
-69 -213 0
-69 -214 0
-70 -209 0
-70 -210 0
-70 -211 0
-70 -212 0
-70 -213 0
-70 -214 0
-65 -225 0
-65 -226 0
-65 -227 0
-65 -228 0
-65 -229 0
-65 -230 0
-66 -225 0
-66 -226 0
-66 -227 0
-66 -228 0
-66 -229 0
-66 -230 0
-67 -225 0
-67 -226 0
-67 -227 0
-67 -228 0
-67 -229 0
-67 -230 0
-68 -225 0
-68 -226 0
-68 -227 0
-68 -228 0
-68 -229 0
-68 -230 0
-69 -225 0
-69 -226 0
-69 -227 0
-69 -228 0
-69 -229 0
-69 -230 0
-70 -225 0
-70 -226 0
-70 -227 0
-70 -228 0
-70 -229 0
-70 -230 0
-65 -241 0
-65 -242 0
-65 -243 0
-65 -244 0
-65 -245 0
-65 -246 0
-66 -241 0
-66 -242 0
-66 -243 0
-66 -244 0
-66 -245 0
-66 -246 0
-67 -241 0
-67 -242 0
-67 -243 0
-67 -244 0
-67 -245 0
-67 -246 0
-68 -241 0
-68 -242 0
-68 -243 0
-68 -244 0
-68 -245 0
-68 -246 0
-69 -241 0
-69 -242 0
-69 -243 0
-69 -244 0
-69 -245 0
-69 -246 0
-70 -241 0
-70 -242 0
-70 -243 0
-70 -244 0
-70 -245 0
-70 -246 0
-81 -97 0
-81 -98 0
-81 -99 0
-81 -100 0
-81 -101 0
-81 -102 0
-82 -97 0
-82 -98 0
-82 -99 0
-82 -100 0
-82 -101 0
-82 -102 0
-83 -97 0
-83 -98 0
-83 -99 0
-83 -100 0
-83 -101 0
-83 -102 0
-84 -97 0
-84 -98 0
-84 -99 0
-84 -100 0
-84 -101 0
-84 -102 0
-85 -97 0
-85 -98 0
-85 -99 0
-85 -100 0
-85 -101 0
-85 -102 0
-86 -97 0
-86 -98 0
-86 -99 0
-86 -100 0
-86 -101 0
-86 -102 0
-81 -145 0
-81 -146 0
-81 -147 0
-81 -148 0
-81 -149 0
-81 -150 0
-82 -145 0
-82 -146 0
-82 -147 0
-82 -148 0
-82 -149 0
-82 -150 0
-83 -145 0
-83 -146 0
-83 -147 0
-83 -148 0
-83 -149 0
-83 -150 0
-84 -145 0
-84 -146 0
-84 -147 0
-84 -148 0
-84 -149 0
-84 -150 0
-85 -145 0
-85 -146 0
-85 -147 0
-85 -148 0
-85 -149 0
-85 -150 0
-86 -145 0
-86 -146 0
-86 -147 0
-86 -148 0
-86 -149 0
-86 -150 0
-81 -225 0
-81 -226 0
-81 -227 0
-81 -228 0
-81 -229 0
-81 -230 0
-82 -225 0
-82 -226 0
-82 -227 0
-82 -228 0
-82 -229 0
-82 -230 0
-83 -225 0
-83 -226 0
-83 -227 0
-83 -228 0
-83 -229 0
-83 -230 0
-84 -225 0
-84 -226 0
-84 -227 0
-84 -228 0
-84 -229 0
-84 -230 0
-85 -225 0
-85 -226 0
-85 -227 0
-85 -228 0
-85 -229 0
-85 -230 0
-86 -225 0
-86 -226 0
-86 -227 0
-86 -228 0
-86 -229 0
-86 -230 0
-97 -177 0
-97 -178 0
-97 -179 0
-97 -180 0
-97 -181 0
-97 -182 0
-98 -177 0
-98 -178 0
-98 -179 0
-98 -180 0
-98 -181 0
-98 -182 0
-99 -177 0
-99 -178 0
-99 -179 0
-99 -180 0
-99 -181 0
-99 -182 0
-100 -177 0
-100 -178 0
-100 -179 0
-100 -180 0
-100 -181 0
-100 -182 0
-101 -177 0
-101 -178 0
-101 -179 0
-101 -180 0
-101 -181 0
-101 -182 0
-102 -177 0
-102 -178 0
-102 -179 0
-102 -180 0
-102 -181 0
-102 -182 0
-97 -193 0
-97 -194 0
-97 -195 0
-97 -196 0
-97 -197 0
-97 -198 0
-98 -193 0
-98 -194 0
-98 -195 0
-98 -196 0
-98 -197 0
-98 -198 0
-99 -193 0
-99 -194 0
-99 -195 0
-99 -196 0
-99 -197 0
-99 -198 0
-100 -193 0
-100 -194 0
-100 -195 0
-100 -196 0
-100 -197 0
-100 -198 0
-101 -193 0
-101 -194 0
-101 -195 0
-101 -196 0
-101 -197 0
-101 -198 0
-102 -193 0
-102 -194 0
-102 -195 0
-102 -196 0
-102 -197 0
-102 -198 0
-97 -225 0
-97 -226 0
-97 -227 0
-97 -228 0
-97 -229 0
-97 -230 0
-98 -225 0
-98 -226 0
-98 -227 0
-98 -228 0
-98 -229 0
-98 -230 0
-99 -225 0
-99 -226 0
-99 -227 0
-99 -228 0
-99 -229 0
-99 -230 0
-100 -225 0
-100 -226 0
-100 -227 0
-100 -228 0
-100 -229 0
-100 -230 0
-101 -225 0
-101 -226 0
-101 -227 0
-101 -228 0
-101 -229 0
-101 -230 0
-102 -225 0
-102 -226 0
-102 -227 0
-102 -228 0
-102 -229 0
-102 -230 0
-113 -209 0
-113 -210 0
-113 -211 0
-113 -212 0
-113 -213 0
-113 -214 0
-114 -209 0
-114 -210 0
-114 -211 0
-114 -212 0
-114 -213 0
-114 -214 0
-115 -209 0
-115 -210 0
-115 -211 0
-115 -212 0
-115 -213 0
-115 -214 0
-116 -209 0
-116 -210 0
-116 -211 0
-116 -212 0
-116 -213 0
-116 -214 0
-117 -209 0
-117 -210 0
-117 -211 0
-117 -212 0
-117 -213 0
-117 -214 0
-118 -209 0
-118 -210 0
-118 -211 0
-118 -212 0
-118 -213 0
-118 -214 0
-113 -225 0
-113 -226 0
-113 -227 0
-113 -228 0
-113 -229 0
-113 -230 0
-114 -225 0
-114 -226 0
-114 -227 0
-114 -228 0
-114 -229 0
-114 -230 0
-115 -225 0
-115 -226 0
-115 -227 0
-115 -228 0
-115 -229 0
-115 -230 0
-116 -225 0
-116 -226 0
-116 -227 0
-116 -228 0
-116 -229 0
-116 -230 0
-117 -225 0
-117 -226 0
-117 -227 0
-117 -228 0
-117 -229 0
-117 -230 0
-118 -225 0
-118 -226 0
-118 -227 0
-118 -228 0
-118 -229 0
-118 -230 0
-129 -177 0
-129 -178 0
-129 -179 0
-129 -180 0
-129 -181 0
-129 -182 0
-130 -177 0
-130 -178 0
-130 -179 0
-130 -180 0
-130 -181 0
-130 -182 0
-131 -177 0
-131 -178 0
-131 -179 0
-131 -180 0
-131 -181 0
-131 -182 0
-132 -177 0
-132 -178 0
-132 -179 0
-132 -180 0
-132 -181 0
-132 -182 0
-133 -177 0
-133 -178 0
-133 -179 0
-133 -180 0
-133 -181 0
-133 -182 0
-134 -177 0
-134 -178 0
-134 -179 0
-134 -180 0
-134 -181 0
-134 -182 0
-129 -193 0
-129 -194 0
-129 -195 0
-129 -196 0
-129 -197 0
-129 -198 0
-130 -193 0
-130 -194 0
-130 -195 0
-130 -196 0
-130 -197 0
-130 -198 0
-131 -193 0
-131 -194 0
-131 -195 0
-131 -196 0
-131 -197 0
-131 -198 0
-132 -193 0
-132 -194 0
-132 -195 0
-132 -196 0
-132 -197 0
-132 -198 0
-133 -193 0
-133 -194 0
-133 -195 0
-133 -196 0
-133 -197 0
-133 -198 0
-134 -193 0
-134 -194 0
-134 -195 0
-134 -196 0
-134 -197 0
-134 -198 0
-129 -225 0
-129 -226 0
-129 -227 0
-129 -228 0
-129 -229 0
-129 -230 0
-130 -225 0
-130 -226 0
-130 -227 0
-130 -228 0
-130 -229 0
-130 -230 0
-131 -225 0
-131 -226 0
-131 -227 0
-131 -228 0
-131 -229 0
-131 -230 0
-132 -225 0
-132 -226 0
-132 -227 0
-132 -228 0
-132 -229 0
-132 -230 0
-133 -225 0
-133 -226 0
-133 -227 0
-133 -228 0
-133 -229 0
-133 -230 0
-134 -225 0
-134 -226 0
-134 -227 0
-134 -228 0
-134 -229 0
-134 -230 0
-129 -241 0
-129 -242 0
-129 -243 0
-129 -244 0
-129 -245 0
-129 -246 0
-130 -241 0
-130 -242 0
-130 -243 0
-130 -244 0
-130 -245 0
-130 -246 0
-131 -241 0
-131 -242 0
-131 -243 0
-131 -244 0
-131 -245 0
-131 -246 0
-132 -241 0
-132 -242 0
-132 -243 0
-132 -244 0
-132 -245 0
-132 -246 0
-133 -241 0
-133 -242 0
-133 -243 0
-133 -244 0
-133 -245 0
-133 -246 0
-134 -241 0
-134 -242 0
-134 -243 0
-134 -244 0
-134 -245 0
-134 -246 0
-145 -193 0
-145 -194 0
-145 -195 0
-145 -196 0
-145 -197 0
-145 -198 0
-146 -193 0
-146 -194 0
-146 -195 0
-146 -196 0
-146 -197 0
-146 -198 0
-147 -193 0
-147 -194 0
-147 -195 0
-147 -196 0
-147 -197 0
-147 -198 0
-148 -193 0
-148 -194 0
-148 -195 0
-148 -196 0
-148 -197 0
-148 -198 0
-149 -193 0
-149 -194 0
-149 -195 0
-149 -196 0
-149 -197 0
-149 -198 0
-150 -193 0
-150 -194 0
-150 -195 0
-150 -196 0
-150 -197 0
-150 -198 0
-145 -209 0
-145 -210 0
-145 -211 0
-145 -212 0
-145 -213 0
-145 -214 0
-146 -209 0
-146 -210 0
-146 -211 0
-146 -212 0
-146 -213 0
-146 -214 0
-147 -209 0
-147 -210 0
-147 -211 0
-147 -212 0
-147 -213 0
-147 -214 0
-148 -209 0
-148 -210 0
-148 -211 0
-148 -212 0
-148 -213 0
-148 -214 0
-149 -209 0
-149 -210 0
-149 -211 0
-149 -212 0
-149 -213 0
-149 -214 0
-150 -209 0
-150 -210 0
-150 -211 0
-150 -212 0
-150 -213 0
-150 -214 0
-161 -193 0
-161 -194 0
-161 -195 0
-161 -196 0
-161 -197 0
-161 -198 0
-162 -193 0
-162 -194 0
-162 -195 0
-162 -196 0
-162 -197 0
-162 -198 0
-163 -193 0
-163 -194 0
-163 -195 0
-163 -196 0
-163 -197 0
-163 -198 0
-164 -193 0
-164 -194 0
-164 -195 0
-164 -196 0
-164 -197 0
-164 -198 0
-165 -193 0
-165 -194 0
-165 -195 0
-165 -196 0
-165 -197 0
-165 -198 0
-166 -193 0
-166 -194 0
-166 -195 0
-166 -196 0
-166 -197 0
-166 -198 0
-161 -209 0
-161 -210 0
-161 -211 0
-161 -212 0
-161 -213 0
-161 -214 0
-162 -209 0
-162 -210 0
-162 -211 0
-162 -212 0
-162 -213 0
-162 -214 0
-163 -209 0
-163 -210 0
-163 -211 0
-163 -212 0
-163 -213 0
-163 -214 0
-164 -209 0
-164 -210 0
-164 -211 0
-164 -212 0
-164 -213 0
-164 -214 0
-165 -209 0
-165 -210 0
-165 -211 0
-165 -212 0
-165 -213 0
-165 -214 0
-166 -209 0
-166 -210 0
-166 -211 0
-166 -212 0
-166 -213 0
-166 -214 0
-177 -193 0
-177 -194 0
-177 -195 0
-177 -196 0
-177 -197 0
-177 -198 0
-178 -193 0
-178 -194 0
-178 -195 0
-178 -196 0
-178 -197 0
-178 -198 0
-179 -193 0
-179 -194 0
-179 -195 0
-179 -196 0
-179 -197 0
-179 -198 0
-180 -193 0
-180 -194 0
-180 -195 0
-180 -196 0
-180 -197 0
-180 -198 0
-181 -193 0
-181 -194 0
-181 -195 0
-181 -196 0
-181 -197 0
-181 -198 0
-182 -193 0
-182 -194 0
-182 -195 0
-182 -196 0
-182 -197 0
-182 -198 0
-177 -225 0
-177 -226 0
-177 -227 0
-177 -228 0
-177 -229 0
-177 -230 0
-178 -225 0
-178 -226 0
-178 -227 0
-178 -228 0
-178 -229 0
-178 -230 0
-179 -225 0
-179 -226 0
-179 -227 0
-179 -228 0
-179 -229 0
-179 -230 0
-180 -225 0
-180 -226 0
-180 -227 0
-180 -228 0
-180 -229 0
-180 -230 0
-181 -225 0
-181 -226 0
-181 -227 0
-181 -228 0
-181 -229 0
-181 -230 0
-182 -225 0
-182 -226 0
-182 -227 0
-182 -228 0
-182 -229 0
-182 -230 0
-193 -209 0
-193 -210 0
-193 -211 0
-193 -212 0
-193 -213 0
-193 -214 0
-194 -209 0
-194 -210 0
-194 -211 0
-194 -212 0
-194 -213 0
-194 -214 0
-195 -209 0
-195 -210 0
-195 -211 0
-195 -212 0
-195 -213 0
-195 -214 0
-196 -209 0
-196 -210 0
-196 -211 0
-196 -212 0
-196 -213 0
-196 -214 0
-197 -209 0
-197 -210 0
-197 -211 0
-197 -212 0
-197 -213 0
-197 -214 0
-198 -209 0
-198 -210 0
-198 -211 0
-198 -212 0
-198 -213 0
-198 -214 0
-193 -225 0
-193 -226 0
-193 -227 0
-193 -228 0
-193 -229 0
-193 -230 0
-194 -225 0
-194 -226 0
-194 -227 0
-194 -228 0
-194 -229 0
-194 -230 0
-195 -225 0
-195 -226 0
-195 -227 0
-195 -228 0
-195 -229 0
-195 -230 0
-196 -225 0
-196 -226 0
-196 -227 0
-196 -228 0
-196 -229 0
-196 -230 0
-197 -225 0
-197 -226 0
-197 -227 0
-197 -228 0
-197 -229 0
-197 -230 0
-198 -225 0
-198 -226 0
-198 -227 0
-198 -228 0
-198 -229 0
-198 -230 0
-193 -241 0
-193 -242 0
-193 -243 0
-193 -244 0
-193 -245 0
-193 -246 0
-194 -241 0
-194 -242 0
-194 -243 0
-194 -244 0
-194 -245 0
-194 -246 0
-195 -241 0
-195 -242 0
-195 -243 0
-195 -244 0
-195 -245 0
-195 -246 0
-196 -241 0
-196 -242 0
-196 -243 0
-196 -244 0
-196 -245 0
-196 -246 0
-197 -241 0
-197 -242 0
-197 -243 0
-197 -244 0
-197 -245 0
-197 -246 0
-198 -241 0
-198 -242 0
-198 -243 0
-198 -244 0
-198 -245 0
-198 -246 0
-1 -17 0
-1 -33 0
-1 -49 0
-1 -65 0
-1 -81 0
-1 -97 0
-1 -113 0
-1 -129 0
-1 -145 0
-1 -161 0
-1 -177 0
-1 -193 0
-1 -209 0
-1 -225 0
-1 -241 0
-17 -33 0
-17 -49 0
-17 -65 0
-17 -81 0
-17 -97 0
-17 -113 0
-17 -129 0
-17 -145 0
-17 -161 0
-17 -177 0
-17 -193 0
-17 -209 0
-17 -225 0
-17 -241 0
-33 -49 0
-33 -65 0
-33 -81 0
-33 -97 0
-33 -113 0
-33 -129 0
-33 -145 0
-33 -161 0
-33 -177 0
-33 -193 0
-33 -209 0
-33 -225 0
-33 -241 0
-49 -65 0
-49 -81 0
-49 -97 0
-49 -113 0
-49 -129 0
-49 -145 0
-49 -161 0
-49 -177 0
-49 -193 0
-49 -209 0
-49 -225 0
-49 -241 0
-65 -81 0
-65 -97 0
-65 -113 0
-65 -129 0
-65 -145 0
-65 -161 0
-65 -177 0
-65 -193 0
-65 -209 0
-65 -225 0
-65 -241 0
-81 -97 0
-81 -113 0
-81 -129 0
-81 -145 0
-81 -161 0
-81 -177 0
-81 -193 0
-81 -209 0
-81 -225 0
-81 -241 0
-97 -113 0
-97 -129 0
-97 -145 0
-97 -161 0
-97 -177 0
-97 -193 0
-97 -209 0
-97 -225 0
-97 -241 0
-113 -129 0
-113 -145 0
-113 -161 0
-113 -177 0
-113 -193 0
-113 -209 0
-113 -225 0
-113 -241 0
-129 -145 0
-129 -161 0
-129 -177 0
-129 -193 0
-129 -209 0
-129 -225 0
-129 -241 0
-145 -161 0
-145 -177 0
-145 -193 0
-145 -209 0
-145 -225 0
-145 -241 0
-161 -177 0
-161 -193 0
-161 -209 0
-161 -225 0
-161 -241 0
-177 -193 0
-177 -209 0
-177 -225 0
-177 -241 0
-193 -209 0
-193 -225 0
-193 -241 0
-209 -225 0
-209 -241 0
-225 -241 0
1 17 33 49 65 81 97 113 129 145 161 177 193 209 225 241 0
-2 -18 0
-2 -34 0
-2 -50 0
-2 -66 0
-2 -82 0
-2 -98 0
-2 -114 0
-2 -130 0
-2 -146 0
-2 -162 0
-2 -178 0
-2 -194 0
-2 -210 0
-2 -226 0
-2 -242 0
-18 -34 0
-18 -50 0
-18 -66 0
-18 -82 0
-18 -98 0
-18 -114 0
-18 -130 0
-18 -146 0
-18 -162 0
-18 -178 0
-18 -194 0
-18 -210 0
-18 -226 0
-18 -242 0
-34 -50 0
-34 -66 0
-34 -82 0
-34 -98 0
-34 -114 0
-34 -130 0
-34 -146 0
-34 -162 0
-34 -178 0
-34 -194 0
-34 -210 0
-34 -226 0
-34 -242 0
-50 -66 0
-50 -82 0
-50 -98 0
-50 -114 0
-50 -130 0
-50 -146 0
-50 -162 0
-50 -178 0
-50 -194 0
-50 -210 0
-50 -226 0
-50 -242 0
-66 -82 0
-66 -98 0
-66 -114 0
-66 -130 0
-66 -146 0
-66 -162 0
-66 -178 0
-66 -194 0
-66 -210 0
-66 -226 0
-66 -242 0
-82 -98 0
-82 -114 0
-82 -130 0
-82 -146 0
-82 -162 0
-82 -178 0
-82 -194 0
-82 -210 0
-82 -226 0
-82 -242 0
-98 -114 0
-98 -130 0
-98 -146 0
-98 -162 0
-98 -178 0
-98 -194 0
-98 -210 0
-98 -226 0
-98 -242 0
-114 -130 0
-114 -146 0
-114 -162 0
-114 -178 0
-114 -194 0
-114 -210 0
-114 -226 0
-114 -242 0
-130 -146 0
-130 -162 0
-130 -178 0
-130 -194 0
-130 -210 0
-130 -226 0
-130 -242 0
-146 -162 0
-146 -178 0
-146 -194 0
-146 -210 0
-146 -226 0
-146 -242 0
-162 -178 0
-162 -194 0
-162 -210 0
-162 -226 0
-162 -242 0
-178 -194 0
-178 -210 0
-178 -226 0
-178 -242 0
-194 -210 0
-194 -226 0
-194 -242 0
-210 -226 0
-210 -242 0
-226 -242 0
2 18 34 50 66 82 98 114 130 146 162 178 194 210 226 242 0
-3 -19 0
-3 -35 0
-3 -51 0
-3 -67 0
-3 -83 0
-3 -99 0
-3 -115 0
-3 -131 0
-3 -147 0
-3 -163 0
-3 -179 0
-3 -195 0
-3 -211 0
-3 -227 0
-3 -243 0
-19 -35 0
-19 -51 0
-19 -67 0
-19 -83 0
-19 -99 0
-19 -115 0
-19 -131 0
-19 -147 0
-19 -163 0
-19 -179 0
-19 -195 0
-19 -211 0
-19 -227 0
-19 -243 0
-35 -51 0
-35 -67 0
-35 -83 0
-35 -99 0
-35 -115 0
-35 -131 0
-35 -147 0
-35 -163 0
-35 -179 0
-35 -195 0
-35 -211 0
-35 -227 0
-35 -243 0
-51 -67 0
-51 -83 0
-51 -99 0
-51 -115 0
-51 -131 0
-51 -147 0
-51 -163 0
-51 -179 0
-51 -195 0
-51 -211 0
-51 -227 0
-51 -243 0
-67 -83 0
-67 -99 0
-67 -115 0
-67 -131 0
-67 -147 0
-67 -163 0
-67 -179 0
-67 -195 0
-67 -211 0
-67 -227 0
-67 -243 0
-83 -99 0
-83 -115 0
-83 -131 0
-83 -147 0
-83 -163 0
-83 -179 0
-83 -195 0
-83 -211 0
-83 -227 0
-83 -243 0
-99 -115 0
-99 -131 0
-99 -147 0
-99 -163 0
-99 -179 0
-99 -195 0
-99 -211 0
-99 -227 0
-99 -243 0
-115 -131 0
-115 -147 0
-115 -163 0
-115 -179 0
-115 -195 0
-115 -211 0
-115 -227 0
-115 -243 0
-131 -147 0
-131 -163 0
-131 -179 0
-131 -195 0
-131 -211 0
-131 -227 0
-131 -243 0
-147 -163 0
-147 -179 0
-147 -195 0
-147 -211 0
-147 -227 0
-147 -243 0
-163 -179 0
-163 -195 0
-163 -211 0
-163 -227 0
-163 -243 0
-179 -195 0
-179 -211 0
-179 -227 0
-179 -243 0
-195 -211 0
-195 -227 0
-195 -243 0
-211 -227 0
-211 -243 0
-227 -243 0
3 19 35 51 67 83 99 115 131 147 163 179 195 211 227 243 0
-4 -20 0
-4 -36 0
-4 -52 0
-4 -68 0
-4 -84 0
-4 -100 0
-4 -116 0
-4 -132 0
-4 -148 0
-4 -164 0
-4 -180 0
-4 -196 0
-4 -212 0
-4 -228 0
-4 -244 0
-20 -36 0
-20 -52 0
-20 -68 0
-20 -84 0
-20 -100 0
-20 -116 0
-20 -132 0
-20 -148 0
-20 -164 0
-20 -180 0
-20 -196 0
-20 -212 0
-20 -228 0
-20 -244 0
-36 -52 0
-36 -68 0
-36 -84 0
-36 -100 0
-36 -116 0
-36 -132 0
-36 -148 0
-36 -164 0
-36 -180 0
-36 -196 0
-36 -212 0
-36 -228 0
-36 -244 0
-52 -68 0
-52 -84 0
-52 -100 0
-52 -116 0
-52 -132 0
-52 -148 0
-52 -164 0
-52 -180 0
-52 -196 0
-52 -212 0
-52 -228 0
-52 -244 0
-68 -84 0
-68 -100 0
-68 -116 0
-68 -132 0
-68 -148 0
-68 -164 0
-68 -180 0
-68 -196 0
-68 -212 0
-68 -228 0
-68 -244 0
-84 -100 0
-84 -116 0
-84 -132 0
-84 -148 0
-84 -164 0
-84 -180 0
-84 -196 0
-84 -212 0
-84 -228 0
-84 -244 0
-100 -116 0
-100 -132 0
-100 -148 0
-100 -164 0
-100 -180 0
-100 -196 0
-100 -212 0
-100 -228 0
-100 -244 0
-116 -132 0
-116 -148 0
-116 -164 0
-116 -180 0
-116 -196 0
-116 -212 0
-116 -228 0
-116 -244 0
-132 -148 0
-132 -164 0
-132 -180 0
-132 -196 0
-132 -212 0
-132 -228 0
-132 -244 0
-148 -164 0
-148 -180 0
-148 -196 0
-148 -212 0
-148 -228 0
-148 -244 0
-164 -180 0
-164 -196 0
-164 -212 0
-164 -228 0
-164 -244 0
-180 -196 0
-180 -212 0
-180 -228 0
-180 -244 0
-196 -212 0
-196 -228 0
-196 -244 0
-212 -228 0
-212 -244 0
-228 -244 0
4 20 36 52 68 84 100 116 132 148 164 180 196 212 228 244 0
-5 -21 0
-5 -37 0
-5 -53 0
-5 -69 0
-5 -85 0
-5 -101 0
-5 -117 0
-5 -133 0
-5 -149 0
-5 -165 0
-5 -181 0
-5 -197 0
-5 -213 0
-5 -229 0
-5 -245 0
-21 -37 0
-21 -53 0
-21 -69 0
-21 -85 0
-21 -101 0
-21 -117 0
-21 -133 0
-21 -149 0
-21 -165 0
-21 -181 0
-21 -197 0
-21 -213 0
-21 -229 0
-21 -245 0
-37 -53 0
-37 -69 0
-37 -85 0
-37 -101 0
-37 -117 0
-37 -133 0
-37 -149 0
-37 -165 0
-37 -181 0
-37 -197 0
-37 -213 0
-37 -229 0
-37 -245 0
-53 -69 0
-53 -85 0
-53 -101 0
-53 -117 0
-53 -133 0
-53 -149 0
-53 -165 0
-53 -181 0
-53 -197 0
-53 -213 0
-53 -229 0
-53 -245 0
-69 -85 0
-69 -101 0
-69 -117 0
-69 -133 0
-69 -149 0
-69 -165 0
-69 -181 0
-69 -197 0
-69 -213 0
-69 -229 0
-69 -245 0
-85 -101 0
-85 -117 0
-85 -133 0
-85 -149 0
-85 -165 0
-85 -181 0
-85 -197 0
-85 -213 0
-85 -229 0
-85 -245 0
-101 -117 0
-101 -133 0
-101 -149 0
-101 -165 0
-101 -181 0
-101 -197 0
-101 -213 0
-101 -229 0
-101 -245 0
-117 -133 0
-117 -149 0
-117 -165 0
-117 -181 0
-117 -197 0
-117 -213 0
-117 -229 0
-117 -245 0
-133 -149 0
-133 -165 0
-133 -181 0
-133 -197 0
-133 -213 0
-133 -229 0
-133 -245 0
-149 -165 0
-149 -181 0
-149 -197 0
-149 -213 0
-149 -229 0
-149 -245 0
-165 -181 0
-165 -197 0
-165 -213 0
-165 -229 0
-165 -245 0
-181 -197 0
-181 -213 0
-181 -229 0
-181 -245 0
-197 -213 0
-197 -229 0
-197 -245 0
-213 -229 0
-213 -245 0
-229 -245 0
5 21 37 53 69 85 101 117 133 149 165 181 197 213 229 245 0
-6 -22 0
-6 -38 0
-6 -54 0
-6 -70 0
-6 -86 0
-6 -102 0
-6 -118 0
-6 -134 0
-6 -150 0
-6 -166 0
-6 -182 0
-6 -198 0
-6 -214 0
-6 -230 0
-6 -246 0
-22 -38 0
-22 -54 0
-22 -70 0
-22 -86 0
-22 -102 0
-22 -118 0
-22 -134 0
-22 -150 0
-22 -166 0
-22 -182 0
-22 -198 0
-22 -214 0
-22 -230 0
-22 -246 0
-38 -54 0
-38 -70 0
-38 -86 0
-38 -102 0
-38 -118 0
-38 -134 0
-38 -150 0
-38 -166 0
-38 -182 0
-38 -198 0
-38 -214 0
-38 -230 0
-38 -246 0
-54 -70 0
-54 -86 0
-54 -102 0
-54 -118 0
-54 -134 0
-54 -150 0
-54 -166 0
-54 -182 0
-54 -198 0
-54 -214 0
-54 -230 0
-54 -246 0
-70 -86 0
-70 -102 0
-70 -118 0
-70 -134 0
-70 -150 0
-70 -166 0
-70 -182 0
-70 -198 0
-70 -214 0
-70 -230 0
-70 -246 0
-86 -102 0
-86 -118 0
-86 -134 0
-86 -150 0
-86 -166 0
-86 -182 0
-86 -198 0
-86 -214 0
-86 -230 0
-86 -246 0
-102 -118 0
-102 -134 0
-102 -150 0
-102 -166 0
-102 -182 0
-102 -198 0
-102 -214 0
-102 -230 0
-102 -246 0
-118 -134 0
-118 -150 0
-118 -166 0
-118 -182 0
-118 -198 0
-118 -214 0
-118 -230 0
-118 -246 0
-134 -150 0
-134 -166 0
-134 -182 0
-134 -198 0
-134 -214 0
-134 -230 0
-134 -246 0
-150 -166 0
-150 -182 0
-150 -198 0
-150 -214 0
-150 -230 0
-150 -246 0
-166 -182 0
-166 -198 0
-166 -214 0
-166 -230 0
-166 -246 0
-182 -198 0
-182 -214 0
-182 -230 0
-182 -246 0
-198 -214 0
-198 -230 0
-198 -246 0
-214 -230 0
-214 -246 0
-230 -246 0
6 22 38 54 70 86 102 118 134 150 166 182 198 214 230 246 0
-1 -2 0
-1 -3 0
-1 -4 0
-1 -5 0
-1 -6 0
-2 -3 0
-2 -4 0
-2 -5 0
-2 -6 0
-3 -4 0
-3 -5 0
-3 -6 0
-4 -5 0
-4 -6 0
-5 -6 0
-17 -18 0
-17 -19 0
-17 -20 0
-17 -21 0
-17 -22 0
-18 -19 0
-18 -20 0
-18 -21 0
-18 -22 0
-19 -20 0
-19 -21 0
-19 -22 0
-20 -21 0
-20 -22 0
-21 -22 0
-33 -34 0
-33 -35 0
-33 -36 0
-33 -37 0
-33 -38 0
-34 -35 0
-34 -36 0
-34 -37 0
-34 -38 0
-35 -36 0
-35 -37 0
-35 -38 0
-36 -37 0
-36 -38 0
-37 -38 0
-49 -50 0
-49 -51 0
-49 -52 0
-49 -53 0
-49 -54 0
-50 -51 0
-50 -52 0
-50 -53 0
-50 -54 0
-51 -52 0
-51 -53 0
-51 -54 0
-52 -53 0
-52 -54 0
-53 -54 0
-65 -66 0
-65 -67 0
-65 -68 0
-65 -69 0
-65 -70 0
-66 -67 0
-66 -68 0
-66 -69 0
-66 -70 0
-67 -68 0
-67 -69 0
-67 -70 0
-68 -69 0
-68 -70 0
-69 -70 0
-81 -82 0
-81 -83 0
-81 -84 0
-81 -85 0
-81 -86 0
-82 -83 0
-82 -84 0
-82 -85 0
-82 -86 0
-83 -84 0
-83 -85 0
-83 -86 0
-84 -85 0
-84 -86 0
-85 -86 0
-97 -98 0
-97 -99 0
-97 -100 0
-97 -101 0
-97 -102 0
-98 -99 0
-98 -100 0
-98 -101 0
-98 -102 0
-99 -100 0
-99 -101 0
-99 -102 0
-100 -101 0
-100 -102 0
-101 -102 0
-113 -114 0
-113 -115 0
-113 -116 0
-113 -117 0
-113 -118 0
-114 -115 0
-114 -116 0
-114 -117 0
-114 -118 0
-115 -116 0
-115 -117 0
-115 -118 0
-116 -117 0
-116 -118 0
-117 -118 0
-129 -130 0
-129 -131 0
-129 -132 0
-129 -133 0
-129 -134 0
-130 -131 0
-130 -132 0
-130 -133 0
-130 -134 0
-131 -132 0
-131 -133 0
-131 -134 0
-132 -133 0
-132 -134 0
-133 -134 0
-145 -146 0
-145 -147 0
-145 -148 0
-145 -149 0
-145 -150 0
-146 -147 0
-146 -148 0
-146 -149 0
-146 -150 0
-147 -148 0
-147 -149 0
-147 -150 0
-148 -149 0
-148 -150 0
-149 -150 0
-161 -162 0
-161 -163 0
-161 -164 0
-161 -165 0
-161 -166 0
-162 -163 0
-162 -164 0
-162 -165 0
-162 -166 0
-163 -164 0
-163 -165 0
-163 -166 0
-164 -165 0
-164 -166 0
-165 -166 0
-177 -178 0
-177 -179 0
-177 -180 0
-177 -181 0
-177 -182 0
-178 -179 0
-178 -180 0
-178 -181 0
-178 -182 0
-179 -180 0
-179 -181 0
-179 -182 0
-180 -181 0
-180 -182 0
-181 -182 0
-193 -194 0
-193 -195 0
-193 -196 0
-193 -197 0
-193 -198 0
-194 -195 0
-194 -196 0
-194 -197 0
-194 -198 0
-195 -196 0
-195 -197 0
-195 -198 0
-196 -197 0
-196 -198 0
-197 -198 0
-209 -210 0
-209 -211 0
-209 -212 0
-209 -213 0
-209 -214 0
-210 -211 0
-210 -212 0
-210 -213 0
-210 -214 0
-211 -212 0
-211 -213 0
-211 -214 0
-212 -213 0
-212 -214 0
-213 -214 0
-225 -226 0
-225 -227 0
-225 -228 0
-225 -229 0
-225 -230 0
-226 -227 0
-226 -228 0
-226 -229 0
-226 -230 0
-227 -228 0
-227 -229 0
-227 -230 0
-228 -229 0
-228 -230 0
-229 -230 0
-241 -242 0
-241 -243 0
-241 -244 0
-241 -245 0
-241 -246 0
-242 -243 0
-242 -244 0
-242 -245 0
-242 -246 0
-243 -244 0
-243 -245 0
-243 -246 0
-244 -245 0
-244 -246 0
-245 -246 0
